results/real/sos1/feb_24_403.in
Version identifier: 22.1.0.0 | 2022-03-09 | 1a383f8ce
CPXPARAM_Threads                                 1
CPXPARAM_MIP_Strategy_VariableSelect             3
CPXPARAM_TimeLimit                               599.999952882
1 of 1 MIP starts provided solutions.
MIP start 'm1' defined initial solution with objective 300.0000.
Tried aggregator 2 times.
MIP Presolve eliminated 447 rows and 1613 columns.
MIP Presolve added 36 rows and 9 columns.
MIP Presolve modified 32 coefficients.
Aggregator did 9 substitutions.
Reduced MIP has 2414 rows, 3627 columns, and 106448 nonzeros.
Reduced MIP has 3627 binaries, 0 generals, 0 SOSs, and 0 indicators.
Presolve time = 0.14 sec. (208.24 ticks)
Probing time = 0.01 sec. (14.31 ticks)
Tried aggregator 1 time.
Detecting symmetries...
MIP Presolve modified 9 coefficients.
Reduced MIP has 2414 rows, 3627 columns, and 106559 nonzeros.
Reduced MIP has 3627 binaries, 0 generals, 0 SOSs, and 0 indicators.
Presolve time = 0.09 sec. (156.18 ticks)
Probing time = 0.01 sec. (14.31 ticks)
Clique table members: 1605.
MIP emphasis: balance optimality and feasibility.
MIP search method: dynamic search.
Parallel mode: none, using 1 thread.
Root relaxation solution time = 0.03 sec. (37.21 ticks)

        Nodes                                         Cuts/
   Node  Left     Objective  IInf  Best Integer    Best Bound    ItCnt     Gap

*     0+    0                          300.0000    81406.0000              --- 
      0     0      403.0000    66      300.0000      403.0000      583   34.33%
*     0+    0                          403.0000      403.0000             0.00%
      0     0        cutoff            403.0000      403.0000      583    0.00%
Elapsed time = 0.42 sec. (569.58 ticks, tree = 0.01 MB, solutions = 2)

Root node processing (before b&c):
  Real time             =    0.42 sec. (569.79 ticks)
Sequential b&c:
  Real time             =    0.00 sec. (0.00 ticks)
                          ------------
Total (root+branch&cut) =    0.42 sec. (569.79 ticks)
Primal:	403
Dual:	403
Status:	Optimal
Time:	0.45
Sequence:
	0
	5
	4
	1
	0
	1
	9
	5
	9
	5
	9
	5
	0
	5
	4
	9
	9
	5
	4
	9
	5
	9
	5
	4
	9
	5
	0
	9
	5
	4
	9
	9
	9
	4
	5
	9
	9
	9
	9
	9
	4
	9
	9
	9
	5
	9
	9
	1
	9
	1
	9
	9
	1
	9
	9
	9
	0
	9
	9
	5
	9
	9
	9
	3
	9
	9
	9
	9
	1
	9
	9
	1
	9
	9
	4
	9
	9
	1
	9
	8
	9
	5
	9
	9
	1
	9
	9
	9
	9
	9
	2
	9
	9
	1
	9
	1
	9
	9
	0
	1
	9
	1
	0
	4
	1
	4
	0
	5
	9
	5
	4
	0
	5
	9
	5
	0
	4
	5
	0
	5
	4
	0
	4
	5
	0
	5
	9
	4
	0
	4
	4
	0
	4
	4
	0
	4
	1
	4
	0
	1
	4
	0
	5
	9
	5
	4
	1
	4
	3
	2
	4
	5
	0
	5
	9
	1
	9
	1
	4
	0
	3
	9
	2
	1
	9
	1
	9
	1
	0
	9
	5
	0
	5
	9
	9
	9
	5
	4
	9
	1
	4
	1
	0
	1
	4
	5
	0
	4
	4
	0
	4
	4
	9
	4
	4
	9
	4
	4
	0
	4
	4
	1
	4
	9
	1
	9
	9
	9
	0
	1
	9
	9
	4
	9
	5
	9
	1
	9
	9
	9
	4
	9
	5
	9
	9
	1
	0
	5
	9
	1
	4
	9
	9
	4
	9
	9
	1
	9
	1
	0
	9
	5
	9
	1
	0
	1
	9
	1
	9
	1
	9
	1
	0
	1
	9
	9
	9
	1
	9
	9
	3
	9
	9
	0
	4
	4
	3
	0
	1
	9
	0
	5
	4
	3
	4
	9
	4
	4
	9
	0
	1
	4
	4
	0
	4
	4
	0
	4
	1
	4
	5
	0
	4
	4
	0
	4
	1
	0
	9
	4
	9
	5
	9
	1
	4
	9
	4
	4
	9
	4
	4
	0
	4
	9
	9
	4
	4
	9
	5
	4
	9
	9
	1
	9
	9
	9
	9
	4
	0
	4
	4
	1
	9
	9
	9
	9
	9
	9
	9
	9
	9
	1
	0
	3
	9
	0
	4
	9
	4
	9
	9
	9
	1
	9
	9
	0
	9
	9
	9
	9
	9
	9
	9
	9
	1
	4
	5
	0
	4
	9
	9
	9
	0
	5
	9
	4
	9
	5
	0
	1
	9
	1
	0
	1
	9
	9
	1
	9
	1
	8
	1
	9
	1
	0
	1
	9
	1
	0
	1
	9
	1
	0
	5
