results/real/sos1/feb_24_403.out
Version identifier: 22.1.1.0 | 2022-11-28 | 9160aff4d
CPXPARAM_Threads                                 1
CPXPARAM_MIP_Strategy_VariableSelect             3
CPXPARAM_TimeLimit                               599.99997988099994
1 of 1 MIP starts provided solutions.
MIP start 'm1' defined initial solution with objective 197.0000.
Tried aggregator 1 time.
MIP Presolve eliminated 419 rows and 1612 columns.
MIP Presolve modified 25 coefficients.
Reduced MIP has 2012 rows, 3627 columns, and 104016 nonzeros.
Reduced MIP has 3627 binaries, 0 generals, 0 SOSs, and 0 indicators.
Presolve time = 0.06 sec. (161.85 ticks)
Probing time = 0.01 sec. (14.30 ticks)
Tried aggregator 1 time.
Detecting symmetries...
MIP Presolve modified 8 coefficients.
Reduced MIP has 2012 rows, 3627 columns, and 104132 nonzeros.
Reduced MIP has 3627 binaries, 0 generals, 0 SOSs, and 0 indicators.
Presolve time = 0.05 sec. (154.61 ticks)
Probing time = 0.01 sec. (14.31 ticks)
Clique table members: 1203.
MIP emphasis: balance optimality and feasibility.
MIP search method: dynamic search.
Parallel mode: none, using 1 thread.
Root relaxation solution time = 0.01 sec. (32.23 ticks)

        Nodes                                         Cuts/
   Node  Left     Objective  IInf  Best Integer    Best Bound    ItCnt     Gap

*     0+    0                          197.0000    81406.0000              --- 
      0     0      403.0000    16      197.0000      403.0000      484  104.57%
*     0+    0                          403.0000      403.0000             0.00%
      0     0        cutoff            403.0000      403.0000      484    0.00%
Elapsed time = 0.19 sec. (467.21 ticks, tree = 0.01 MB, solutions = 2)

Root node processing (before b&c):
  Real time             =    0.19 sec. (467.41 ticks)
Sequential b&c:
  Real time             =    0.00 sec. (0.00 ticks)
                          ------------
Total (root+branch&cut) =    0.19 sec. (467.41 ticks)
Primal:	403
Dual:	403
Status:	Optimal
Time:	0.22
Sequence:
	1
	0
	4
	1
	0
	5
	4
	9
	9
	1
	1
	5
	9
	0
	3
	9
	0
	1
	1
	9
	5
	5
	9
	5
	1
	5
	9
	5
	5
	9
	0
	9
	4
	5
	9
	5
	9
	9
	9
	9
	0
	9
	9
	0
	5
	5
	9
	4
	4
	1
	4
	4
	1
	9
	9
	4
	4
	9
	4
	4
	0
	4
	4
	9
	4
	4
	9
	4
	9
	4
	4
	9
	9
	1
	9
	0
	4
	1
	5
	5
	9
	5
	5
	9
	9
	9
	2
	9
	9
	9
	1
	4
	1
	5
	5
	9
	5
	5
	9
	1
	5
	9
	5
	0
	1
	4
	0
	4
	1
	4
	0
	1
	4
	9
	0
	1
	1
	8
	1
	1
	1
	4
	0
	5
	1
	4
	4
	1
	5
	4
	9
	0
	1
	4
	3
	4
	1
	1
	0
	9
	5
	4
	1
	0
	1
	4
	0
	4
	9
	5
	0
	3
	9
	1
	1
	1
	9
	1
	1
	0
	9
	9
	1
	1
	1
	9
	1
	1
	1
	4
	1
	1
	1
	9
	3
	0
	1
	4
	0
	5
	1
	4
	0
	4
	9
	4
	0
	1
	4
	1
	4
	1
	1
	4
	4
	9
	4
	9
	4
	4
	0
	4
	9
	1
	0
	4
	4
	9
	4
	9
	9
	9
	9
	9
	0
	9
	9
	1
	9
	9
	0
	9
	9
	9
	0
	9
	9
	4
	9
	9
	9
	9
	0
	9
	9
	9
	9
	9
	2
	4
	5
	9
	5
	9
	5
	0
	5
	9
	5
	4
	9
	4
	4
	3
	4
	4
	9
	4
	0
	4
	4
	3
	4
	4
	1
	1
	9
	5
	5
	9
	1
	0
	4
	9
	9
	0
	9
	4
	9
	8
	9
	9
	0
	9
	4
	0
	1
	4
	3
	0
	4
	9
	4
	0
	4
	4
	9
	5
	5
	9
	5
	0
	5
	9
	9
	5
	5
	9
	5
	9
	9
	0
	9
	9
	0
	9
	9
	9
	9
	9
	9
	4
	1
	4
	9
	9
	0
	9
	9
	9
	9
	0
	9
	9
	9
	9
	9
	9
	9
	9
	4
	9
	9
	4
	9
	0
	9
	9
	0
	9
	4
	0
	1
	9
	9
	9
	9
	9
	0
	9
	9
	9
	9
	0
	9
	9
	9
	9
	9
	4
	9
	0
	9
	9
	9
	0
	4
	9
	9
	9
	9
	9
	2
	9
	9
	9
	9
	9
	9
	9
	9
	9
	9
	9
	1
	1
	4
	1
	0
	5
	9
	0
	1
